50

99 32 222
96 31 441
96 11 214
96 39 456
95 15 437
95 44 332
94 38 358
90 41 358
90 9 549
88 7 563
87 25 291
84 3 293
82 9 210
78 3 508
77 31 286
77 35 319
77 7 403
75 8 489
75 28 558
70 3 345
70 30 420
69 32 558
68 25 536
56 14 512
54 5 580
53 12 286
53 7 456
50 17 511
50 4 443
49 19 345
48 8 357
47 11 218
45 19 566
38 10 322
36 17 552
35 11 404
34 4 219
28 1 472
25 4 470
21 11 293
19 8 514
18 1 266
16 1 536
13 5 310
13 2 297
7 2 365
7 4 539
6 1 236
3 1 238
3 2 591
